\ENCODING=ISO-8859-1
\Problem name: mknap2_cut_n10

Maximize
 obj1: 100 x0 + 220 x1 + 90 x2 + 400 x3 + 300 x4 + 400 x5 + 205 x6 + 120 x7
       + 160 x8 + 580 x9 + 400 x10 + 140 x11 + 100 x12 + 1300 x13 + 650 x14
Subject To
 c0:     8 x0 + 24 x1 + 13 x2 + 80 x3 + 70 x4 + 80 x5 + 45 x6 + 15 x7 + 28 x8
         + 90 x9 + 130 x10 + 32 x11 + 20 x12 + 120 x13 + 40 x14 + s0 <= 550
 c1:     8 x0 + 44 x1 + 13 x2 + 100 x3 + 100 x4 + 90 x5 + 75 x6 + 25 x7 + 28 x8
         + 120 x9 + 130 x10 + 32 x11 + 40 x12 + 160 x13 + 40 x14 + s1 <= 700
 c2:     3 x0 + 6 x1 + 4 x2 + 20 x3 + 20 x4 + 30 x5 + 8 x6 + 3 x7 + 12 x8
         + 14 x9 + 40 x10 + 6 x11 + 3 x12 + 20 x13 + 5 x14 + s2 <= 130
 c3:     5 x0 + 9 x1 + 6 x2 + 40 x3 + 30 x4 + 40 x5 + 16 x6 + 5 x7 + 18 x8
         + 24 x9 + 60 x10 + 16 x11 + 11 x12 + 30 x13 + 25 x14 + s3 <= 240
 c4:     5 x0 + 11 x1 + 7 x2 + 50 x3 + 40 x4 + 40 x5 + 19 x6 + 7 x7 + 18 x8
         + 29 x9 + 70 x10 + 21 x11 + 17 x12 + 30 x13 + 25 x14 + s4 <= 280
 c5:     5 x0 + 11 x1 + 7 x2 + 55 x3 + 40 x4 + 40 x5 + 21 x6 + 9 x7 + 18 x8
         + 29 x9 + 70 x10 + 21 x11 + 17 x12 + 35 x13 + 25 x14 + s5 <= 310
 c6:     x2 + 10 x3 + 4 x4 + 10 x5 + 6 x7 + 6 x9 + 32 x10 + 3 x11 + 70 x13
         + 10 x14 + s6 <= 110
 c7:     3 x0 + 4 x1 + 5 x2 + 20 x3 + 14 x4 + 20 x5 + 6 x6 + 12 x7 + 10 x8
         + 18 x9 + 42 x10 + 9 x11 + 12 x12 + 100 x13 + 20 x14 + s7 <= 205
 c8:     3 x0 + 6 x1 + 9 x2 + 30 x3 + 29 x4 + 20 x5 + 12 x6 + 12 x7 + 10 x8
         + 30 x9 + 42 x10 + 18 x11 + 18 x12 + 110 x13 + 20 x14 + s8 <= 260
 c9:     3 x0 + 8 x1 + 9 x2 + 35 x3 + 29 x4 + 20 x5 + 16 x6 + 15 x7 + 10 x8
         + 30 x9 + 42 x10 + 20 x11 + 18 x12 + 120 x13 + 20 x14 + s9 <= 275
 cut_1:  5 x0 + 17 x1 + 8 x2 + 49 x3 + 44 x4 + 46 x5 + 28 x6 + 18 x7 + 17 x8
         + 53 x9 + 78 x10 + 18 x11 + 23 x12 + 140 x13 + 30 x14 <= 403
 cut_2:  6 x0 + 37 x1 + 11 x2 + 85 x3 + 85 x4 + 76 x5 + 63 x6 + 21 x7 + 24 x8
         + 102 x9 + 111 x10 + 27 x11 + 34 x12 + 140 x13 + 34 x14 <= 600
 cut_3:  6 x0 + 34 x1 + 10 x2 + 80 x3 + 80 x4 + 73 x5 + 59 x6 + 21 x7 + 23 x8
         + 96 x9 + 107 x10 + 26 x11 + 32 x12 + 140 x13 + 34 x14 <= 576
 cut_4:  6 x0 + 30 x1 + 9 x2 + 71 x3 + 70 x4 + 64 x5 + 51 x6 + 19 x7 + 21 x8
         + 84 x9 + 96 x10 + 23 x11 + 29 x12 + 130 x13 + 31 x14 <= 514
 cut_5:  5 x0 + 25 x1 + 9 x2 + 62 x3 + 60 x4 + 57 x5 + 43 x6 + 18 x7 + 19 x8
         + 72 x9 + 88 x10 + 21 x11 + 26 x12 + 130 x13 + 30 x14 <= 466
 cut_6:  5 x0 + 25 x1 + 8 x2 + 62 x3 + 60 x4 + 56 x5 + 43 x6 + 18 x7 + 19 x8
         + 72 x9 + 86 x10 + 20 x11 + 26 x12 + 125 x13 + 29 x14 <= 459
 cut_7:  3 x0 + 4 x1 + 5 x2 + 20 x3 + 15 x4 + 20 x5 + 6 x6 + 12 x7 + 10 x8
         + 19 x9 + 42 x10 + 9 x11 + 12 x12 + 100 x13 + 20 x14 <= 209
 cut_8:  8 x0 + 43 x1 + 13 x2 + 100 x3 + 100 x4 + 90 x5 + 74 x6 + 25 x7 + 28 x8
         + 120 x9 + 130 x10 + 32 x11 + 40 x12 + 161 x13 + 40 x14 <= 701
 cut_9:  7 x0 + 37 x1 + 11 x2 + 86 x3 + 85 x4 + 77 x5 + 62 x6 + 22 x7 + 24 x8
         + 102 x9 + 114 x10 + 28 x11 + 35 x12 + 150 x13 + 36 x14 <= 614
 cut_10: x0 + 4 x1 + x2 + 11 x3 + 10 x4 + 10 x5 + 6 x6 + 4 x7 + 3 x8 + 12 x9
         + 17 x10 + 4 x11 + 5 x12 + 30 x13 + 6 x14 <= 89
Bounds
 0 <= x0 <= 1
 0 <= x1 <= 1
 0 <= x2 <= 1
 0 <= x3 <= 1
 0 <= x4 <= 1
 0 <= x5 <= 1
 0 <= x6 <= 1
 0 <= x7 <= 1
 0 <= x8 <= 1
 0 <= x9 <= 1
 0 <= x10 <= 1
 0 <= x11 <= 1
 0 <= x12 <= 1
 0 <= x13 <= 1
 0 <= x14 <= 1
End
